<instance format="XCSP3" type="CSP">
  <variables>
    <array id="x" size="[10][10]"> 1..100 </array>
  </variables>
  <constraints>
    <allDifferent> x[][] </allDifferent>
    <group class="rows">
      <sum>
        <list> %... </list>
        <condition> (eq,505) </condition>
      </sum>
      <args> x[0][] </args>
      <args> x[1][] </args>
      <args> x[2][] </args>
      <args> x[3][] </args>
      <args> x[4][] </args>
      <args> x[5][] </args>
      <args> x[6][] </args>
      <args> x[7][] </args>
      <args> x[8][] </args>
      <args> x[9][] </args>
    </group>
    <group class="columns">
      <sum>
        <list> %... </list>
        <condition> (eq,505) </condition>
      </sum>
      <args> x[][0] </args>
      <args> x[][1] </args>
      <args> x[][2] </args>
      <args> x[][3] </args>
      <args> x[][4] </args>
      <args> x[][5] </args>
      <args> x[][6] </args>
      <args> x[][7] </args>
      <args> x[][8] </args>
      <args> x[][9] </args>
    </group>
    <group class="diagonals">
      <sum>
        <list> %... </list>
        <condition> (eq,505) </condition>
      </sum>
      <args> x[0][0] x[1][1] x[2][2] x[3][3] x[4][4] x[5][5] x[6][6] x[7][7] x[8][8] x[9][9] </args>
      <args> x[0][9] x[1][8] x[2][7] x[3][6] x[4][5] x[5][4] x[6][3] x[7][2] x[8][1] x[9][0] </args>
    </group>
  </constraints>
</instance>
